words_hard_train/7113.qaiger
aag 92 16 0 1 76
2
4
8
12
16
20
24
28
36
38
42
46
48
56
60
64
184
6 3 5
10 6 9
14 10 13
18 14 17
22 18 21
26 22 25
30 26 29
32 27 28
34 31 33
40 37 39
44 42 37
50 46 48
52 44 50
54 40 53
58 55 56
62 58 60
66 62 65
68 63 64
70 67 69
72 35 71
74 40 57
76 52 39
78 77 58
80 75 79
82 19 20
84 83 23
86 81 84
88 23 24
90 89 27
92 76 56
94 59 61
96 95 63
98 93 96
100 92 97
102 99 101
104 90 102
106 87 105
108 11 12
110 109 15
112 111 37
114 36 38
116 115 41
118 15 16
120 119 19
122 117 121
124 113 123
126 7 8
128 127 11
130 129 48
132 128 49
134 4 46
136 135 7
138 2 42
140 5 47
142 138 141
144 136 143
146 133 145
148 131 147
150 110 36
152 149 151
154 124 153
156 116 120
158 155 157
160 80 85
162 159 161
164 106 163
166 91 103
168 165 167
170 168 100
172 72 171
174 169 101
176 175 73
178 173 177
180 34 70
182 180 171
184 179 183
i0 1 x1[0]
i1 1 x1[1]
i2 1 x1[2]
i3 1 x1[3]
i4 1 x1[4]
i5 1 x1[5]
i6 1 x1[6]
i7 1 x1[7]
i8 2 y2[3]
i9 2 y2[4]
i10 2 y2[0]
i11 2 y2[1]
i12 2 y2[2]
i13 2 y2[5]
i14 2 y2[6]
i15 2 y2[7]
o0 bv[0]
c
simplified
  <=
    add
      or
        24
        1
      2 y2
    unary minus
      1 x1
