words_hard_train/7113.qaiger.qdimacs
p cnf 92 229
a 1 2 4 6 8 10 12 14 0
e 3 5 7 9 11 13 15 16 17 18 19 20 21 22 23 24 25 26 27 28 29 30 31 32 33 34 35 36 37 38 39 40 41 42 43 44 45 46 47 48 49 50 51 52 53 54 55 56 57 58 59 60 61 62 63 64 65 66 67 68 69 70 71 72 73 74 75 76 77 78 79 80 81 82 83 84 85 86 87 88 89 90 91 92 0
1 2 3 0
-1 -3 0
-2 -3 0
-3 4 5 0
3 -5 0
-4 -5 0
-5 6 7 0
5 -7 0
-6 -7 0
-7 8 9 0
7 -9 0
-8 -9 0
-9 10 11 0
9 -11 0
-10 -11 0
-11 12 13 0
11 -13 0
-12 -13 0
-13 14 15 0
13 -15 0
-14 -15 0
13 -14 16 0
-13 -16 0
14 -16 0
15 16 17 0
-15 -17 0
-16 -17 0
18 19 20 0
-18 -20 0
-19 -20 0
-21 18 22 0
21 -22 0
-18 -22 0
-23 -24 25 0
23 -25 0
24 -25 0
-22 -25 26 0
22 -26 0
25 -26 0
-20 26 27 0
20 -27 0
-26 -27 0
27 -28 29 0
-27 -29 0
28 -29 0
-29 -30 31 0
29 -31 0
30 -31 0
-31 32 33 0
31 -33 0
-32 -33 0
31 -32 34 0
-31 -34 0
32 -34 0
33 34 35 0
-33 -35 0
-34 -35 0
17 35 36 0
-17 -36 0
-35 -36 0
-20 28 37 0
20 -37 0
-28 -37 0
-26 19 38 0
26 -38 0
-19 -38 0
38 -29 39 0
-38 -39 0
29 -39 0
37 39 40 0
-37 -40 0
-39 -40 0
9 -10 41 0
-9 -41 0
10 -41 0
41 11 42 0
-41 -42 0
-11 -42 0
40 -42 43 0
-40 -43 0
42 -43 0
11 -12 44 0
-11 -44 0
12 -44 0
44 13 45 0
-44 -45 0
-13 -45 0
-38 -28 46 0
38 -46 0
28 -46 0
29 30 47 0
-29 -47 0
-30 -47 0
47 31 48 0
-47 -48 0
-31 -48 0
46 -48 49 0
-46 -49 0
48 -49 0
-46 48 50 0
46 -50 0
-48 -50 0
49 50 51 0
-49 -51 0
-50 -51 0
-45 -51 52 0
45 -52 0
51 -52 0
43 52 53 0
-43 -53 0
-52 -53 0
5 -6 54 0
-5 -54 0
6 -54 0
54 7 55 0
-54 -55 0
-7 -55 0
55 18 56 0
-55 -56 0
-18 -56 0
-18 -19 57 0
18 -57 0
19 -57 0
57 20 58 0
-57 -58 0
-20 -58 0
7 -8 59 0
-7 -59 0
8 -59 0
59 9 60 0
-59 -60 0
-9 -60 0
58 60 61 0
-58 -61 0
-60 -61 0
56 61 62 0
-56 -62 0
-61 -62 0
3 -4 63 0
-3 -63 0
4 -63 0
63 5 64 0
-63 -64 0
-5 -64 0
64 -24 65 0
-64 -65 0
24 -65 0
-64 24 66 0
64 -66 0
-24 -66 0
-2 -23 67 0
2 -67 0
23 -67 0
67 3 68 0
-67 -68 0
-3 -68 0
-1 -21 69 0
1 -69 0
21 -69 0
2 23 70 0
-2 -70 0
-23 -70 0
-69 70 71 0
69 -71 0
-70 -71 0
-68 71 72 0
68 -72 0
-71 -72 0
66 72 73 0
-66 -73 0
-72 -73 0
65 73 74 0
-65 -74 0
-73 -74 0
-55 -18 75 0
55 -75 0
18 -75 0
74 75 76 0
-74 -76 0
-75 -76 0
-62 76 77 0
62 -77 0
-76 -77 0
-58 -60 78 0
58 -78 0
60 -78 0
77 78 79 0
-77 -79 0
-78 -79 0
-40 42 80 0
40 -80 0
-42 -80 0
79 80 81 0
-79 -81 0
-80 -81 0
-53 81 82 0
53 -82 0
-81 -82 0
45 51 83 0
-45 -83 0
-51 -83 0
82 83 84 0
-82 -84 0
-83 -84 0
-84 -50 85 0
84 -85 0
50 -85 0
-36 85 86 0
36 -86 0
-85 -86 0
84 50 87 0
-84 -87 0
-50 -87 0
87 36 88 0
-87 -88 0
-36 -88 0
86 88 89 0
-86 -89 0
-88 -89 0
-17 -35 90 0
17 -90 0
35 -90 0
-90 85 91 0
90 -91 0
-85 -91 0
89 91 92 0
-89 -92 0
-91 -92 0
92 0
